solution status: time limit reached
objective value:                                  -40
C0012                                               1 	(obj:-1)
C0023                                               1 	(obj:-1)
C0037                                               1 	(obj:-1)
C0048                                               1 	(obj:-1)
C0062                                               1 	(obj:-1)
C0107                                               1 	(obj:-1)
C0115                                               1 	(obj:-1)
C0121                                               1 	(obj:-1)
C0159                                               1 	(obj:-1)
C0170                                               1 	(obj:-1)
C0195                                               1 	(obj:-1)
C0225                                               1 	(obj:-1)
C0264                                               1 	(obj:-1)
C0267                                               1 	(obj:-1)
C0299                                               1 	(obj:-1)
C0303                                               1 	(obj:-1)
C0346                                               1 	(obj:-1)
C0390                                               1 	(obj:-1)
C0392                                               1 	(obj:-1)
C0430                                               1 	(obj:-1)
C0453                                               1 	(obj:-1)
C0481                                               1 	(obj:-1)
C0526                                               1 	(obj:-1)
C0561                                               1 	(obj:-1)
C0568                                               1 	(obj:-1)
C0600                                               1 	(obj:-1)
C0606                                               1 	(obj:-1)
C0643                                               1 	(obj:-1)
C0652                                               1 	(obj:-1)
C0689                                               1 	(obj:-1)
C0696                                               1 	(obj:-1)
C0746                                               1 	(obj:-1)
C0755                                               1 	(obj:-1)
C0769                                               1 	(obj:-1)
C0790                                               1 	(obj:-1)
C0814                                               1 	(obj:-1)
C0824                                               1 	(obj:-1)
C0866                                               1 	(obj:-1)
C0878                                               1 	(obj:-1)
C0881                                               1 	(obj:-1)
